1600146000
1600160400
1600243200
1600257600
1600330800
1600345800
1600416000
1600430400
1600675200
1600689600
1600761000
1600776000
1600848000
1600862400
1600934400
1600948800
1601022600
1601037000
1601280000
1601294400
1601367000
1601381400
1601452800
1601467200
